NAME: S051D2_20
COMMENT: 714.05
VEHICLE: 9
TIME: 90.4096
DIMENSION: 51
CAPACITY: 160
DELIVERY_SECTION
0 0 0
1 1 32
2 1 1
3 2 16
4 2 1.6
5 2 1.6
6 2 1.6
7 2 1.6
8 2 0.6
9 3 32
10 3 8
11 3 1.6
12 3 1.6
13 3 1.6
14 3 1.2
15 4 16
16 4 8
17 4 1.6
18 4 1.6
19 4 0.8
20 5 16
21 5 1.6
22 5 1.6
23 5 1.6
24 5 0.2
25 6 16
26 6 1.6
27 6 1.6
28 6 1.6
29 6 0.2
30 7 32
31 7 8
32 7 1.6
33 7 1.6
34 7 1.6
35 7 1.6
36 7 0.6
37 8 16
38 8 1.6
39 8 1.6
40 8 1.6
41 8 1.2
42 9 16
43 9 8
44 10 16
45 10 1.6
46 10 1.6
47 10 0.8
48 11 32
49 11 8
50 11 1.6
51 11 1.6
52 11 1.6
53 11 1.2
54 12 16
55 12 1
56 13 32
57 13 1.6
58 13 1.6
59 13 1.6
60 13 0.2
61 14 16
62 14 1.6
63 14 1.4
64 15 32
65 15 8
66 15 1
67 16 16
68 16 1.6
69 16 0.4
70 17 32
71 17 8
72 17 1.6
73 17 1.6
74 17 1.6
75 17 0.2
76 18 16
77 18 1.6
78 18 0.4
79 19 32
80 20 16
81 20 1.6
82 20 1.6
83 20 1.6
84 20 0.2
85 21 32
86 21 8
87 21 1.6
88 21 1.6
89 21 1.6
90 21 1.6
91 21 0.6
92 22 16
93 22 1.6
94 22 0.4
95 23 16
96 23 1.6
97 23 1.6
98 23 0.8
99 24 16
100 24 1.6
101 24 1.6
102 24 1.6
103 24 1.6
104 24 0.6
105 25 32
106 25 8
107 25 1.6
108 25 1.4
109 26 16
110 26 1.6
111 26 0.4
112 27 16
113 27 8
114 28 16
115 28 1.6
116 28 1.6
117 28 1.6
118 28 1.6
119 28 0.6
120 29 32
121 29 1
122 30 16
123 30 1.6
124 30 0.4
125 31 32
126 31 1.6
127 31 1.6
128 31 1.6
129 31 0.2
130 32 16
131 32 1.6
132 32 1.6
133 32 1.6
134 32 1.6
135 32 0.6
136 33 16
137 33 1.6
138 33 1.4
139 34 16
140 34 1.6
141 34 0.4
142 35 32
143 35 8
144 35 1.6
145 35 1.6
146 35 1.6
147 35 0.2
148 36 16
149 36 1.6
150 36 1.6
151 36 1.6
152 36 1.2
153 37 16
154 37 8
155 37 1
156 38 16
157 38 1.6
158 38 0.4
159 39 32
160 39 8
161 39 1.6
162 39 1.6
163 39 1.6
164 39 1.6
165 39 0.6
166 40 16
167 40 1.6
168 40 1.6
169 40 0.8
170 41 32
171 41 1.6
172 41 1.6
173 41 0.8
174 42 16
175 42 1.6
176 42 0.4
177 43 32
178 43 8
179 43 1.6
180 43 1.4
181 44 16
182 44 1
183 45 32
184 45 8
185 45 1.6
186 45 1.4
187 46 16
188 46 1.6
189 46 1.4
190 47 32
191 47 1
192 48 16
193 48 1.6
194 48 1.4
195 49 32
196 49 8
197 49 1.6
198 49 1.6
199 49 1.6
200 49 1.6
201 49 0.6
202 50 16
203 50 1.6
204 50 1.6
205 50 0.8
PICKUP_SECTION
NODE_SECTION
30 40

37 52

49 49

52 64

20 26

40 30

21 47

17 63

31 62

52 33

51 21

42 41

31 32

 5 25

12 42

36 16

52 41

27 23

17 33

13 13

57 58

62 42

42 57

16 57
 
8 52

 7 38

27 68

30 48

43 67

58 48

58 27

37 69

38 46

46 10

61 33

62 63

63 69

32 22

45 35

59 15

 5  6

10 17

21 10

 5 64

30 15

39 10

32 39

25 32

25 55

48 28

56 37
DISTANCE_SECTION
DEPOT_SECTION
0
EOF